\* NBA *\
Maximize
OBJ: 148985 x0 + 148986 x1 + 148995 x10 + 149085 x100 + 149086 x101
 + 149087 x102 + 149088 x103 + 149089 x104 + 149090 x105 + 149091 x106
 + 149092 x107 + 149093 x108 + 149094 x109 + 148996 x11 + 149095 x110
 + 149096 x111 + 149097 x112 + 149098 x113 + 149099 x114 + 149100 x115
 + 149101 x116 + 149102 x117 + 149103 x118 + 149104 x119 + 148997 x12
 + 149105 x120 + 149106 x121 + 149107 x122 + 149108 x123 + 149109 x124
 + 149110 x125 + 149111 x126 + 149112 x127 + 149113 x128 + 149114 x129
 + 148998 x13 + 149115 x130 + 149116 x131 + 149117 x132 + 149118 x133
 + 149119 x134 + 149120 x135 + 149121 x136 + 149122 x137 + 149123 x138
 + 149124 x139 + 148999 x14 + 149125 x140 + 149126 x141 + 149127 x142
 + 149128 x143 + 149129 x144 + 149130 x145 + 149131 x146 + 149132 x147
 + 149133 x148 + 149134 x149 + 149000 x15 + 149135 x150 + 149136 x151
 + 149137 x152 + 149138 x153 + 149139 x154 + 149140 x155 + 149141 x156
 + 149142 x157 + 149143 x158 + 149144 x159 + 149001 x16 + 149145 x160
 + 149146 x161 + 149147 x162 + 149148 x163 + 149149 x164 + 149150 x165
 + 149151 x166 + 149152 x167 + 149153 x168 + 149154 x169 + 149002 x17
 + 149155 x170 + 149156 x171 + 149157 x172 + 149158 x173 + 149159 x174
 + 149160 x175 + 149161 x176 + 149162 x177 + 149163 x178 + 149164 x179
 + 149003 x18 + 149165 x180 + 149166 x181 + 149167 x182 + 149168 x183
 + 149169 x184 + 149170 x185 + 149171 x186 + 149172 x187 + 149173 x188
 + 149174 x189 + 149004 x19 + 149175 x190 + 149176 x191 + 149177 x192
 + 149178 x193 + 149179 x194 + 149180 x195 + 149181 x196 + 149182 x197
 + 149183 x198 + 149184 x199 + 148987 x2 + 149005 x20 + 149185 x200
 + 149186 x201 + 149187 x202 + 149188 x203 + 149189 x204 + 149190 x205
 + 149191 x206 + 149192 x207 + 149193 x208 + 149194 x209 + 149006 x21
 + 149195 x210 + 149196 x211 + 149197 x212 + 149198 x213 + 149199 x214
 + 149200 x215 + 149201 x216 + 149202 x217 + 149203 x218 + 149204 x219
 + 149007 x22 + 149205 x220 + 149206 x221 + 149207 x222 + 149208 x223
 + 149209 x224 + 149210 x225 + 149211 x226 + 149212 x227 + 149213 x228
 + 149214 x229 + 149008 x23 + 149215 x230 + 149216 x231 + 149217 x232
 + 149218 x233 + 149219 x234 + 149220 x235 + 149221 x236 + 149222 x237
 + 149223 x238 + 149224 x239 + 149009 x24 + 149225 x240 + 149226 x241
 + 149227 x242 + 149228 x243 + 149229 x244 + 149230 x245 + 149231 x246
 + 149232 x247 + 149233 x248 + 149234 x249 + 149010 x25 + 149235 x250
 + 149236 x251 + 149237 x252 + 149238 x253 + 149239 x254 + 149240 x255
 + 149241 x256 + 149242 x257 + 149243 x258 + 149244 x259 + 149011 x26
 + 149245 x260 + 149246 x261 + 149247 x262 + 149248 x263 + 149249 x264
 + 149250 x265 + 149251 x266 + 149252 x267 + 149253 x268 + 149254 x269
 + 149012 x27 + 149255 x270 + 149256 x271 + 149257 x272 + 149258 x273
 + 149259 x274 + 149260 x275 + 149261 x276 + 149262 x277 + 149263 x278
 + 149264 x279 + 149013 x28 + 149265 x280 + 149266 x281 + 149267 x282
 + 149268 x283 + 149269 x284 + 149270 x285 + 149271 x286 + 149272 x287
 + 149273 x288 + 149274 x289 + 149014 x29 + 149275 x290 + 149276 x291
 + 149277 x292 + 149278 x293 + 149279 x294 + 149280 x295 + 149281 x296
 + 149282 x297 + 149283 x298 + 149284 x299 + 148988 x3 + 149015 x30
 + 149016 x31 + 149017 x32 + 149018 x33 + 149019 x34 + 149020 x35 + 149021 x36
 + 149022 x37 + 149023 x38 + 149024 x39 + 148989 x4 + 149025 x40 + 149026 x41
 + 149027 x42 + 149028 x43 + 149029 x44 + 149030 x45 + 149031 x46 + 149032 x47
 + 149033 x48 + 149034 x49 + 148990 x5 + 149035 x50 + 149036 x51 + 149037 x52
 + 149038 x53 + 149039 x54 + 149040 x55 + 149041 x56 + 149042 x57 + 149043 x58
 + 149044 x59 + 148991 x6 + 149045 x60 + 149046 x61 + 149047 x62 + 149048 x63
 + 149049 x64 + 149050 x65 + 149051 x66 + 149052 x67 + 149053 x68 + 149054 x69
 + 148992 x7 + 149055 x70 + 149056 x71 + 149057 x72 + 149058 x73 + 149059 x74
 + 149060 x75 + 149061 x76 + 149062 x77 + 149063 x78 + 149064 x79 + 148993 x8
 + 149065 x80 + 149066 x81 + 149067 x82 + 149068 x83 + 149069 x84 + 149070 x85
 + 149071 x86 + 149072 x87 + 149073 x88 + 149074 x89 + 148994 x9 + 149075 x90
 + 149076 x91 + 149077 x92 + 149078 x93 + 149079 x94 + 149080 x95 + 149081 x96
 + 149082 x97 + 149083 x98 + 149084 x99
Subject To
_C1: 11500 x0 + 10300 x1 + 4200 x10 + 3400 x100 + 3000 x101 + 3000 x102
 + 3000 x103 + 8700 x104 + 8300 x105 + 5500 x106 + 5000 x107 + 4900 x108
 + 4700 x109 + 4000 x11 + 4400 x110 + 4400 x111 + 3900 x112 + 3900 x113
 + 3800 x114 + 3800 x115 + 3700 x116 + 3600 x117 + 3500 x118 + 3400 x119
 + 3700 x12 + 3300 x120 + 3200 x121 + 3000 x122 + 3000 x123 + 3000 x124
 + 3000 x125 + 3000 x126 + 3000 x127 + 3000 x128 + 3000 x129 + 3700 x13
 + 3000 x130 + 3000 x131 + 3000 x132 + 3000 x133 + 3000 x134 + 3000 x135
 + 3000 x136 + 3000 x137 + 3000 x138 + 3000 x139 + 3000 x14 + 8600 x140
 + 7900 x141 + 7000 x142 + 6400 x143 + 6300 x144 + 5900 x145 + 5800 x146
 + 5800 x147 + 5400 x148 + 5400 x149 + 3000 x15 + 5300 x150 + 5200 x151
 + 4900 x152 + 4800 x153 + 4600 x154 + 4400 x155 + 4400 x156 + 4200 x157
 + 4100 x158 + 4000 x159 + 3000 x16 + 3800 x160 + 3600 x161 + 3600 x162
 + 3500 x163 + 3300 x164 + 3300 x165 + 3300 x166 + 3100 x167 + 3000 x168
 + 3000 x169 + 3000 x17 + 3000 x170 + 3000 x171 + 3000 x172 + 3000 x173
 + 3000 x174 + 3000 x175 + 3000 x176 + 3000 x177 + 3000 x178 + 3000 x179
 + 11300 x18 + 3000 x180 + 3000 x181 + 3000 x182 + 3000 x183 + 3000 x184
 + 3000 x185 + 3000 x186 + 3000 x187 + 3000 x188 + 3000 x189 + 6900 x19
 + 8500 x190 + 5900 x191 + 5800 x192 + 5700 x193 + 5000 x194 + 4800 x195
 + 4700 x196 + 4600 x197 + 4500 x198 + 4300 x199 + 7800 x2 + 6800 x20
 + 4000 x200 + 4000 x201 + 3500 x202 + 3500 x203 + 3200 x204 + 3000 x205
 + 3000 x206 + 3000 x207 + 3000 x208 + 3000 x209 + 4700 x21 + 3000 x210
 + 3000 x211 + 3000 x212 + 3000 x213 + 3000 x214 + 3000 x215 + 3000 x216
 + 3000 x217 + 3000 x218 + 3000 x219 + 4400 x22 + 3000 x220 + 3000 x221
 + 3000 x222 + 3000 x223 + 3000 x224 + 3000 x225 + 3000 x226 + 3000 x227
 + 3000 x228 + 3000 x229 + 4400 x23 + 3000 x230 + 3000 x231 + 3000 x232
 + 8200 x233 + 6700 x234 + 6600 x235 + 6000 x236 + 4900 x237 + 4800 x238
 + 4800 x239 + 4000 x24 + 4000 x240 + 4000 x241 + 3800 x242 + 3600 x243
 + 3600 x244 + 3300 x245 + 3200 x246 + 3200 x247 + 3000 x248 + 3000 x249
 + 3500 x25 + 3000 x250 + 3000 x251 + 3000 x252 + 6900 x253 + 6500 x254
 + 6400 x255 + 5600 x256 + 5600 x257 + 5400 x258 + 5400 x259 + 3500 x26
 + 5300 x260 + 5300 x261 + 4600 x262 + 4500 x263 + 4400 x264 + 4400 x265
 + 4200 x266 + 4100 x267 + 4000 x268 + 3900 x269 + 3200 x27 + 3700 x270
 + 3700 x271 + 3600 x272 + 3600 x273 + 3600 x274 + 3600 x275 + 3500 x276
 + 3200 x277 + 3000 x278 + 3000 x279 + 3000 x28 + 3000 x280 + 3000 x281
 + 3000 x282 + 3000 x283 + 3000 x284 + 3000 x285 + 3000 x286 + 3000 x287
 + 3000 x288 + 3000 x289 + 3000 x29 + 3000 x290 + 3000 x291 + 3000 x292
 + 3000 x293 + 3000 x294 + 3000 x295 + 3000 x296 + 3000 x297 + 3000 x298
 + 3000 x299 + 7700 x3 + 3000 x30 + 3000 x31 + 9900 x32 + 9000 x33 + 8800 x34
 + 8400 x35 + 8400 x36 + 7500 x37 + 7300 x38 + 7200 x39 + 6200 x4 + 6900 x40
 + 6500 x41 + 6000 x42 + 6000 x43 + 5900 x44 + 5700 x45 + 5600 x46 + 5500 x47
 + 5300 x48 + 5000 x49 + 6000 x5 + 4900 x50 + 4800 x51 + 4800 x52 + 4800 x53
 + 4600 x54 + 4600 x55 + 4000 x56 + 3700 x57 + 3600 x58 + 3500 x59 + 5400 x6
 + 3400 x60 + 3400 x61 + 3300 x62 + 3300 x63 + 3200 x64 + 3200 x65 + 3200 x66
 + 3000 x67 + 3000 x68 + 3000 x69 + 5100 x7 + 3000 x70 + 3000 x71 + 3000 x72
 + 3000 x73 + 3000 x74 + 3000 x75 + 3000 x76 + 3000 x77 + 3000 x78 + 3000 x79
 + 5000 x8 + 3000 x80 + 3000 x81 + 3000 x82 + 3000 x83 + 3000 x84 + 3000 x85
 + 9400 x86 + 9300 x87 + 8000 x88 + 6500 x89 + 4600 x9 + 6400 x90 + 6400 x91
 + 6200 x92 + 6100 x93 + 5400 x94 + 5200 x95 + 4000 x96 + 4000 x97 + 3900 x98
 + 3700 x99 <= 50000
_C10: x0 + x1 + x10 + x100 + x101 + x102 + x103 + x11 + x12 + x13 + x14 + x15
 + x16 + x17 + x190 + x191 + x192 + x193 + x194 + x195 + x196 + x197 + x198
 + x199 + x2 + x200 + x201 + x202 + x203 + x204 + x205 + x206 + x207 + x208
 + x209 + x210 + x211 + x212 + x213 + x214 + x215 + x216 + x217 + x218 + x219
 + x220 + x221 + x222 + x223 + x224 + x225 + x226 + x227 + x228 + x229 + x230
 + x231 + x232 + x3 + x4 + x5 + x6 + x7 + x8 + x86 + x87 + x88 + x89 + x9
 + x90 + x91 + x92 + x93 + x94 + x95 + x96 + x97 + x98 + x99 >= 1
_C11: x0 + x1 + x10 + x11 + x12 + x13 + x14 + x140 + x141 + x142 + x143 + x144
 + x145 + x146 + x147 + x148 + x149 + x15 + x150 + x151 + x152 + x153 + x154
 + x155 + x156 + x157 + x158 + x159 + x16 + x160 + x161 + x162 + x163 + x164
 + x165 + x166 + x167 + x168 + x169 + x17 + x170 + x171 + x172 + x173 + x174
 + x175 + x176 + x177 + x178 + x179 + x180 + x181 + x182 + x183 + x184 + x185
 + x186 + x187 + x188 + x189 + x2 + x3 + x4 + x5 + x6 + x7 + x8 + x9 <= 2
_C12: x0 + x1 + x10 + x11 + x12 + x13 + x14 + x140 + x141 + x142 + x143 + x144
 + x145 + x146 + x147 + x148 + x149 + x15 + x150 + x151 + x152 + x153 + x154
 + x155 + x156 + x157 + x158 + x159 + x16 + x160 + x161 + x162 + x163 + x164
 + x165 + x166 + x167 + x168 + x169 + x17 + x170 + x171 + x172 + x173 + x174
 + x175 + x176 + x177 + x178 + x179 + x180 + x181 + x182 + x183 + x184 + x185
 + x186 + x187 + x188 + x189 + x2 + x3 + x4 + x5 + x6 + x7 + x8 + x9 >= 1
_C2: x0 + x1 + x10 + x100 + x101 + x102 + x103 + x104 + x105 + x106 + x107
 + x108 + x109 + x11 + x110 + x111 + x112 + x113 + x114 + x115 + x116 + x117
 + x118 + x119 + x12 + x120 + x121 + x122 + x123 + x124 + x125 + x126 + x127
 + x128 + x129 + x13 + x130 + x131 + x132 + x133 + x134 + x135 + x136 + x137
 + x138 + x139 + x14 + x140 + x141 + x142 + x143 + x144 + x145 + x146 + x147
 + x148 + x149 + x15 + x150 + x151 + x152 + x153 + x154 + x155 + x156 + x157
 + x158 + x159 + x16 + x160 + x161 + x162 + x163 + x164 + x165 + x166 + x167
 + x168 + x169 + x17 + x170 + x171 + x172 + x173 + x174 + x175 + x176 + x177
 + x178 + x179 + x18 + x180 + x181 + x182 + x183 + x184 + x185 + x186 + x187
 + x188 + x189 + x19 + x190 + x191 + x192 + x193 + x194 + x195 + x196 + x197
 + x198 + x199 + x2 + x20 + x200 + x201 + x202 + x203 + x204 + x205 + x206
 + x207 + x208 + x209 + x21 + x210 + x211 + x212 + x213 + x214 + x215 + x216
 + x217 + x218 + x219 + x22 + x220 + x221 + x222 + x223 + x224 + x225 + x226
 + x227 + x228 + x229 + x23 + x230 + x231 + x232 + x233 + x234 + x235 + x236
 + x237 + x238 + x239 + x24 + x240 + x241 + x242 + x243 + x244 + x245 + x246
 + x247 + x248 + x249 + x25 + x250 + x251 + x252 + x253 + x254 + x255 + x256
 + x257 + x258 + x259 + x26 + x260 + x261 + x262 + x263 + x264 + x265 + x266
 + x267 + x268 + x269 + x27 + x270 + x271 + x272 + x273 + x274 + x275 + x276
 + x277 + x278 + x279 + x28 + x280 + x281 + x282 + x283 + x284 + x285 + x286
 + x287 + x288 + x289 + x29 + x290 + x291 + x292 + x293 + x294 + x295 + x296
 + x297 + x298 + x299 + x3 + x30 + x31 + x32 + x33 + x34 + x35 + x36 + x37
 + x38 + x39 + x4 + x40 + x41 + x42 + x43 + x44 + x45 + x46 + x47 + x48 + x49
 + x5 + x50 + x51 + x52 + x53 + x54 + x55 + x56 + x57 + x58 + x59 + x6 + x60
 + x61 + x62 + x63 + x64 + x65 + x66 + x67 + x68 + x69 + x7 + x70 + x71 + x72
 + x73 + x74 + x75 + x76 + x77 + x78 + x79 + x8 + x80 + x81 + x82 + x83 + x84
 + x85 + x86 + x87 + x88 + x89 + x9 + x90 + x91 + x92 + x93 + x94 + x95 + x96
 + x97 + x98 + x99 = 8
_C3: x18 + x19 + x20 + x21 + x22 + x23 + x24 + x25 + x26 + x27 + x28 + x29
 + x30 + x31 + x32 + x33 + x34 + x35 + x36 + x37 + x38 + x39 + x40 + x41 + x42
 + x43 + x44 + x45 + x46 + x47 + x48 + x49 + x50 + x51 + x52 + x53 + x54 + x55
 + x56 + x57 + x58 + x59 + x60 + x61 + x62 + x63 + x64 + x65 + x66 + x67 + x68
 + x69 + x70 + x71 + x72 + x73 + x74 + x75 + x76 + x77 + x78 + x79 + x80 + x81
 + x82 + x83 + x84 + x85 <= 3
_C4: x18 + x19 + x20 + x21 + x22 + x23 + x24 + x25 + x26 + x27 + x28 + x29
 + x30 + x31 + x32 + x33 + x34 + x35 + x36 + x37 + x38 + x39 + x40 + x41 + x42
 + x43 + x44 + x45 + x46 + x47 + x48 + x49 + x50 + x51 + x52 + x53 + x54 + x55
 + x56 + x57 + x58 + x59 + x60 + x61 + x62 + x63 + x64 + x65 + x66 + x67 + x68
 + x69 + x70 + x71 + x72 + x73 + x74 + x75 + x76 + x77 + x78 + x79 + x80 + x81
 + x82 + x83 + x84 + x85 >= 1
_C5: x18 + x19 + x20 + x21 + x22 + x23 + x233 + x234 + x235 + x236 + x237
 + x238 + x239 + x24 + x240 + x241 + x242 + x243 + x244 + x245 + x246 + x247
 + x248 + x249 + x25 + x250 + x251 + x252 + x253 + x254 + x255 + x256 + x257
 + x258 + x259 + x26 + x260 + x261 + x262 + x263 + x264 + x265 + x266 + x267
 + x268 + x269 + x27 + x270 + x271 + x272 + x273 + x274 + x275 + x276 + x277
 + x278 + x279 + x28 + x280 + x281 + x282 + x283 + x284 + x285 + x286 + x287
 + x288 + x289 + x29 + x290 + x291 + x292 + x293 + x294 + x295 + x296 + x297
 + x298 + x299 + x30 + x31 <= 3
_C6: x18 + x19 + x20 + x21 + x22 + x23 + x233 + x234 + x235 + x236 + x237
 + x238 + x239 + x24 + x240 + x241 + x242 + x243 + x244 + x245 + x246 + x247
 + x248 + x249 + x25 + x250 + x251 + x252 + x253 + x254 + x255 + x256 + x257
 + x258 + x259 + x26 + x260 + x261 + x262 + x263 + x264 + x265 + x266 + x267
 + x268 + x269 + x27 + x270 + x271 + x272 + x273 + x274 + x275 + x276 + x277
 + x278 + x279 + x28 + x280 + x281 + x282 + x283 + x284 + x285 + x286 + x287
 + x288 + x289 + x29 + x290 + x291 + x292 + x293 + x294 + x295 + x296 + x297
 + x298 + x299 + x30 + x31 >= 1
_C7: x100 + x101 + x102 + x103 + x104 + x105 + x106 + x107 + x108 + x109
 + x110 + x111 + x112 + x113 + x114 + x115 + x116 + x117 + x118 + x119 + x120
 + x121 + x122 + x123 + x124 + x125 + x126 + x127 + x128 + x129 + x130 + x131
 + x132 + x133 + x134 + x135 + x136 + x137 + x138 + x139 + x233 + x234 + x235
 + x236 + x237 + x238 + x239 + x240 + x241 + x242 + x243 + x244 + x245 + x246
 + x247 + x248 + x249 + x250 + x251 + x252 + x86 + x87 + x88 + x89 + x90 + x91
 + x92 + x93 + x94 + x95 + x96 + x97 + x98 + x99 <= 3
_C8: x100 + x101 + x102 + x103 + x104 + x105 + x106 + x107 + x108 + x109
 + x110 + x111 + x112 + x113 + x114 + x115 + x116 + x117 + x118 + x119 + x120
 + x121 + x122 + x123 + x124 + x125 + x126 + x127 + x128 + x129 + x130 + x131
 + x132 + x133 + x134 + x135 + x136 + x137 + x138 + x139 + x233 + x234 + x235
 + x236 + x237 + x238 + x239 + x240 + x241 + x242 + x243 + x244 + x245 + x246
 + x247 + x248 + x249 + x250 + x251 + x252 + x86 + x87 + x88 + x89 + x90 + x91
 + x92 + x93 + x94 + x95 + x96 + x97 + x98 + x99 >= 1
_C9: x0 + x1 + x10 + x100 + x101 + x102 + x103 + x11 + x12 + x13 + x14 + x15
 + x16 + x17 + x190 + x191 + x192 + x193 + x194 + x195 + x196 + x197 + x198
 + x199 + x2 + x200 + x201 + x202 + x203 + x204 + x205 + x206 + x207 + x208
 + x209 + x210 + x211 + x212 + x213 + x214 + x215 + x216 + x217 + x218 + x219
 + x220 + x221 + x222 + x223 + x224 + x225 + x226 + x227 + x228 + x229 + x230
 + x231 + x232 + x3 + x4 + x5 + x6 + x7 + x8 + x86 + x87 + x88 + x89 + x9
 + x90 + x91 + x92 + x93 + x94 + x95 + x96 + x97 + x98 + x99 <= 3
Binaries
x0
x1
x10
x100
x101
x102
x103
x104
x105
x106
x107
x108
x109
x11
x110
x111
x112
x113
x114
x115
x116
x117
x118
x119
x12
x120
x121
x122
x123
x124
x125
x126
x127
x128
x129
x13
x130
x131
x132
x133
x134
x135
x136
x137
x138
x139
x14
x140
x141
x142
x143
x144
x145
x146
x147
x148
x149
x15
x150
x151
x152
x153
x154
x155
x156
x157
x158
x159
x16
x160
x161
x162
x163
x164
x165
x166
x167
x168
x169
x17
x170
x171
x172
x173
x174
x175
x176
x177
x178
x179
x18
x180
x181
x182
x183
x184
x185
x186
x187
x188
x189
x19
x190
x191
x192
x193
x194
x195
x196
x197
x198
x199
x2
x20
x200
x201
x202
x203
x204
x205
x206
x207
x208
x209
x21
x210
x211
x212
x213
x214
x215
x216
x217
x218
x219
x22
x220
x221
x222
x223
x224
x225
x226
x227
x228
x229
x23
x230
x231
x232
x233
x234
x235
x236
x237
x238
x239
x24
x240
x241
x242
x243
x244
x245
x246
x247
x248
x249
x25
x250
x251
x252
x253
x254
x255
x256
x257
x258
x259
x26
x260
x261
x262
x263
x264
x265
x266
x267
x268
x269
x27
x270
x271
x272
x273
x274
x275
x276
x277
x278
x279
x28
x280
x281
x282
x283
x284
x285
x286
x287
x288
x289
x29
x290
x291
x292
x293
x294
x295
x296
x297
x298
x299
x3
x30
x31
x32
x33
x34
x35
x36
x37
x38
x39
x4
x40
x41
x42
x43
x44
x45
x46
x47
x48
x49
x5
x50
x51
x52
x53
x54
x55
x56
x57
x58
x59
x6
x60
x61
x62
x63
x64
x65
x66
x67
x68
x69
x7
x70
x71
x72
x73
x74
x75
x76
x77
x78
x79
x8
x80
x81
x82
x83
x84
x85
x86
x87
x88
x89
x9
x90
x91
x92
x93
x94
x95
x96
x97
x98
x99
End
